c is-unsat
p cnf 10 68
2 6 8 0
5 10 -4 0
-5 -6 -1 0
2 3 -5 0
-2 -3 8 0
-6 -9 -7 0
-2 9 -7 0
-8 -2 -6 0
6 3 -8 0
4 -7 -3 0
-8 -2 -4 0
-8 4 6 0
9 -6 -8 0
9 -2 3 0
7 -3 1 0
8 3 -7 0
-4 -7 -10 0
-10 -5 -4 0
-10 -2 -4 0
2 10 3 0
-9 -10 -4 0
6 -1 10 0
-1 -10 -4 0
-2 8 5 0
10 -9 1 0
-6 -8 -2 0
-8 -9 -6 0
3 -4 2 0
-9 -3 -10 0
-5 -3 8 0
-9 -1 -3 0
2 -6 -1 0
-8 -3 6 0
-3 -9 -7 0
10 -4 5 0
-8 -1 -2 0
-3 -7 6 0
5 7 -10 0
-1 -4 -8 0
-9 -1 -6 0
4 -3 -6 0
-8 -10 -2 0
8 -7 -4 0
-7 4 -9 0
4 -10 -9 0
-6 -1 -3 0
5 9 -8 0
-2 -3 -6 0
-5 -7 2 0
-10 -6 1 0
-3 8 -6 0
-10 -7 -8 0
-3 -5 -4 0
-9 -10 -8 0
9 6 -7 0
10 5 -7 0
6 -5 -3 0
-7 2 -4 0
-1 4 7 0
-9 -10 2 0
3 1 -4 0
10 -9 2 0
-2 -3 -6 0
-9 -10 -7 0
-6 -1 -5 0
4 -2 -6 0
-10 -7 3 0
-9 -8 -4 0
